g3 0 1 0	# problem d7n5R1R6d005d1
 5 6 1 0 1	# vars, constraints, objectives, ranges, eqns
 4 1	# nonlinear constraints, objectives
 0 0	# network constraints: nonlinear, linear
 5 5 5	# nonlinear vars in constraints, objectives, both
 0 0 0 1	# linear network variables; functions; arith, flags
 0 0 0 0 0	# discrete variables: binary, integer, nonlinear (b,c,o)
 30 5	# nonzeros in Jacobian, gradients
 0 0	# max name lengths: constraints, variables
 0 0 0 0 0	# common exprs: b,c,o,c1,o1
b
0 0.2 2.81
0 0.97 2.26
0 0.22 2.85
0 0.18 2.83
0 0.52 2.24
r
2 77.672
2 72.317
2 85.666
2 383.19
4 18.284
2 54.878
C0
o2
o2
n9.66
v0
v3
C1
o0
o2
o2
n7.21
v0
v3
o2
o2
o2
n4.92
v0
v0
v0
C2
o54
4
o2
o2
n0.93
v0
v3
o2
o2
o2
n2.09
v0
v0
v0
o2
o2
o2
o2
n7.59
v0
v1
v2
v3
o2
o2
o2
o2
n0.16
v1
v1
v1
v2
C3
o54
11
o2
o2
n1.2
v0
v3
o16
o2
o2
o2
n1.12
v0
v0
v0
o2
o2
o2
o2
n8.25
v0
v1
v2
v3
o2
o2
o2
o2
n8.8
v1
v1
v1
v2
o2
o2
o2
o2
o2
n7.08
v0
v0
v0
v0
v2
o2
o2
o2
o2
o2
n8.32
v0
v0
v0
v0
v3
o2
o2
o2
o2
o2
n0.76
v0
v0
v0
v2
v4
o2
o2
o2
o2
o2
n1.16
v0
v0
v0
v4
v4
o2
o2
o2
o2
o2
n7.26
v0
v2
v2
v3
v4
o2
o2
o2
o2
o2
n3.03
v2
v2
v2
v3
v3
o2
o2
o2
o2
o2
n4.48
v3
v4
v4
v4
v4
C4
n0
C5
n0
O0 0
o54
39
o2
o2
n7.57
v0
v3
o2
o2
o2
n5.88
v0
v0
v0
o2
o2
o2
o2
n5.76
v0
v1
v2
v3
o2
o2
o2
o2
n0.61
v1
v1
v1
v2
o2
o2
o2
o2
o2
n6.73
v0
v0
v0
v0
v2
o16
o2
o2
o2
o2
o2
n4.44
v0
v0
v0
v0
v3
o2
o2
o2
o2
o2
n2.15
v0
v0
v0
v2
v4
o2
o2
o2
o2
o2
n7.13
v0
v0
v0
v4
v4
o2
o2
o2
o2
o2
n3.13
v0
v2
v2
v3
v4
o2
o2
o2
o2
o2
n8.74
v2
v2
v2
v3
v3
o2
o2
o2
o2
o2
n9.94
v3
v4
v4
v4
v4
o2
o2
o2
o2
o2
o2
n9.24
v0
v0
v0
v0
v0
v1
o2
o2
o2
o2
o2
o2
n0.98
v0
v0
v0
v0
v3
v4
o2
o2
o2
o2
o2
o2
n1.97
v0
v0
v1
v1
v1
v1
o2
o2
o2
o2
o2
o2
n6.39
v0
v0
v1
v1
v3
v3
o2
o2
o2
o2
o2
o2
n8.78
v0
v0
v1
v3
v3
v4
o2
o2
o2
o2
o2
o2
n6.66
v0
v0
v1
v4
v4
v4
o2
o2
o2
o2
o2
o2
n9.57
v0
v0
v2
v2
v2
v2
o2
o2
o2
o2
o2
o2
n1.42
v0
v1
v1
v2
v2
v2
o2
o2
o2
o2
o2
o2
n4.23
v0
v3
v3
v3
v4
v4
o2
o2
o2
o2
o2
o2
n8.82
v2
v2
v2
v3
v3
v4
o2
o2
o2
o2
o2
o2
n9.56
v3
v3
v3
v3
v3
v3
o2
o2
o2
o2
o2
o2
o2
n0.8
v0
v0
v0
v0
v1
v3
v3
o16
o2
o2
o2
o2
o2
o2
o2
n9.19
v0
v0
v0
v1
v1
v1
v3
o2
o2
o2
o2
o2
o2
o2
n4.58
v0
v0
v0
v1
v2
v2
v2
o2
o2
o2
o2
o2
o2
o2
n9.16
v0
v0
v1
v2
v2
v2
v2
o2
o2
o2
o2
o2
o2
o2
n5.57
v0
v0
v1
v2
v2
v2
v4
o2
o2
o2
o2
o2
o2
o2
n7.1
v0
v0
v2
v3
v3
v3
v3
o2
o2
o2
o2
o2
o2
o2
n2.17
v0
v0
v2
v3
v3
v4
v4
o2
o2
o2
o2
o2
o2
o2
n7.66
v0
v1
v1
v1
v1
v3
v3
o2
o2
o2
o2
o2
o2
o2
n7.68
v0
v1
v1
v1
v1
v3
v4
o2
o2
o2
o2
o2
o2
o2
n2.21
v0
v1
v4
v4
v4
v4
v4
o2
o2
o2
o2
o2
o2
o2
n9.64
v0
v2
v2
v3
v3
v4
v4
o2
o2
o2
o2
o2
o2
o2
n5.46
v0
v2
v3
v4
v4
v4
v4
o2
o2
o2
o2
o2
o2
o2
n1.93
v1
v1
v1
v1
v2
v3
v4
o2
o2
o2
o2
o2
o2
o2
n6.83
v1
v2
v2
v2
v2
v4
v4
o2
o2
o2
o2
o2
o2
o2
n9.94
v2
v2
v2
v2
v2
v2
v4
o2
o2
o2
o2
o2
o2
o2
n9.49
v2
v2
v2
v2
v3
v3
v3
o2
o2
o2
o2
o2
o2
o2
n4.12
v2
v2
v4
v4
v4
v4
v4
k4
6
12
18
24
J0 5
0 7.1
1 8.32
2 4.82
3 9.58
4 7.14
J1 5
0 1
1 8.59
2 5.89
3 5.87
4 4.32
J2 5
0 4.65
1 5.9
2 0.37
3 1.74
4 9.47
J3 5
0 4.64
1 9.14
2 1.6
3 9.88
4 4.52
J4 5
0 0.59
1 4.78
2 1.01
3 7.49
4 -2.28
J5 5
0 6.69
1 8.51
2 5.43
3 8.96
4 6.7
G0 5
0 2.99
1 9.87
2 8
3 -9.3
4 2.23
